111	22	4	57	
7	7	10	10

0	0	0	0	0	0	3	1	2	3
1	0	0	3	0	9	1	5
2	0	4	0	0	4	2	4	10
3	7	0	0	0	3	1	6
4	2	0	0	0	5	3	7	11	12
5	0	0	2	0	8	1	9
6	0	0	0	8	8	1	10
7	0	0	1	0	2	1	8
8	0	0	7	0	1	3	14	16	20
9	0	0	1	0	6	1	12
10	0	0	0	2	7	1	11
11	0	6	0	0	3	2	16	18
12	0	4	0	0	5	1	13
13	0	0	10	0	2	1	15
14	0	0	5	0	4	1	19
15	2	0	0	0	10	2	16	18
16	7	0	0	0	8	2	17	19
17	0	0	0	3	5	1	21
18	0	0	0	2	6	1	21
19	4	0	0	0	9	1	21
20	4	0	0	0	6	1	21
21	0	0	0	0	0	0
